c b=3,c=131
p cnf 13 29
2 3 -6 0
1 3 -7 0
3 -13 0
2 -3 6 0
2 -3 7 0
-3 13 0
1 2 -5 0
2 -8 0
2 -12 0
1 -2 3 6 0
3 -8 0
1 -2 -3 -6 0
-2 -3 8 0
1 -2 5 0
1 -2 -7 0
-2 12 0
1 -4 0
1 -11 0
-1 3 -6 0
2 3 -7 0
-1 -3 6 0
-1 2 5 0
-1 -2 3 7 0
-2 -3 -7 0
-1 -2 -5 0
-1 4 0
-1 11 0
-9 0
-10 0
